p cnf 37 100
a 35 28 0
e 1 2 3 4 5 6 7 8 9 10 11 12 13 14 15 16 17 18 19 20 21 22 23 24 25 26 27 29 30 31 32 33 34 36 37 0
-3 -1 0
-3 -2 0
1 2 3 0
-5 -3 -6 0
5 3 -6 0
-5 3 6 0
5 -3 6 0
7 -4 0
7 -6 0
4 6 -7 0
8 3 0
8 7 0
-3 -7 -8 0
-9 -4 -10 0
9 4 -10 0
-9 4 10 0
9 -4 10 0
12 -2 -13 0
-12 2 -13 0
12 2 13 0
-12 -2 13 0
-14 -11 0
-14 -13 0
11 13 14 0
-15 -10 0
-15 14 0
10 -14 15 0
-16 8 0
-16 15 0
-8 -15 16 0
7 -13 -17 0
-7 13 -17 0
7 13 17 0
-7 -13 17 0
-18 -16 0
-18 17 0
16 -17 18 0
19 -6 0
19 3 0
6 -3 -19 0
20 -1 0
20 19 0
1 -19 -20 0
18 20 -21 0
-18 -20 -21 0
18 -20 21 0
-18 20 21 0
23 -22 0
23 6 0
22 -6 -23 0
-25 -9 0
-25 -24 0
9 24 25 0
26 23 0
26 25 0
-23 -25 -26 0
9 4 -27 0
-9 -4 -27 0
9 -4 27 0
-9 4 27 0
28 -26 0
28 -27 0
26 27 -28 0
-9 -11 -29 0
9 11 -29 0
-9 11 29 0
9 -11 29 0
30 -24 0
30 29 0
24 -29 -30 0
28 30 -31 0
-28 -30 -31 0
28 -30 31 0
-28 30 31 0
33 32 0
33 -13 0
-32 13 -33 0
-31 33 -34 0
31 -33 -34 0
-31 -33 34 0
31 33 34 0
-35 21 0
-35 34 0
-21 -34 35 0
-36 -5 0
-36 6 0
5 -6 36 0
37 -35 0
37 -36 0
35 36 -37 0
-35 -33 12 -34 -20 -21 0
-10 -17 -22 30 8 -7 0
-19 32 -2 37 31 3 25 0
-18 36 -15 -16 -25 -11 0
15 -36 37 16 0
-12 10 -30 -34 3 -27 0
-35 -15 37 18 0
19 23 -21 -17 20 -32 12 1 0
1 23 -4 32 -12 7 27 0
37 0
